Minimize
-1 l1718 + -1 l1721 + -1 l1719 + -1 l1723
 + -1 l1716 + -1 l1715 + -1 l1724 + -1 l1720
 + -1 l1722 + -1 l1717 + 1 u1718 + 1 u1721
 + 1 u1719 + 1 u1723 + 1 u1716 + 1 u1715
 + 1 u1724 + 1 u1720 + 1 u1722 + 1 u1717


Subject To
C0: 1 x1718 + -1 x1716 <= -5
C1: 1 x1718 + -1 x1715 <= -5
C2: 1 x1718 + -1 x1724 <= -5
C3: 1 x1718 + -1 x1720 <= -5
C4: 1 x1718 + -1 x1722 <= -5
C5: 1 x1718 + -1 x1717 <= -5
C6: 1 x1721 + -1 x1719 <= -6
C7: 1 x1721 + -1 x1723 <= -6
C8: 1 x1721 + -1 x1716 <= -6
C9: 1 x1721 + -1 x1715 <= -6
C10: 1 x1721 + -1 x1720 <= -6
C11: 1 x1721 + -1 x1722 <= -6
C12: 1 x1721 + -1 x1717 <= -6
C13: 1 x1719 + -1 x1723 <= -5
C14: 1 x1719 + -1 x1716 <= -5
C15: 1 x1719 + -1 x1715 <= -5
C16: 1 x1719 + -1 x1720 <= -5
C17: 1 x1719 + -1 x1722 <= -5
C18: 1 x1719 + -1 x1717 <= -5
C19: 1 x1723 + -1 x1715 <= -10
C20: 1 x1723 + -1 x1720 <= -10
C21: 1 x1723 + -1 x1717 <= -10
C22: 1 x1716 + -1 x1715 <= -6
C23: 1 x1716 + -1 x1720 <= -6
C24: 1 x1716 + -1 x1717 <= -6
C25: 1 x1715 + -1 x1720 <= -7
C26: 1 x1724 + -1 x1722 <= -1
C27: 1 x1724 + -1 x1717 <= -1
C28: -1 x1718 + 1 l1718 <= 0
C29: -1 x1718 + 1 u1718 >= 0
C30: -1 x1721 + 1 l1721 <= 0
C31: -1 x1721 + 1 u1721 >= 0
C32: -1 x1719 + 1 l1719 <= 0
C33: -1 x1719 + 1 u1719 >= 0
C34: -1 x1723 + 1 l1723 <= 0
C35: -1 x1723 + 1 u1723 >= 0
C36: -1 x1716 + 1 l1716 <= 0
C37: -1 x1716 + 1 u1716 >= 0
C38: -1 x1715 + 1 l1715 <= 0
C39: -1 x1715 + 1 u1715 >= 0
C40: -1 x1724 + 1 l1724 <= 0
C41: -1 x1724 + 1 u1724 >= 0
C42: -1 x1720 + 1 l1720 <= 0
C43: -1 x1720 + 1 u1720 >= 0
C44: -1 x1722 + 1 l1722 <= 0
C45: -1 x1722 + 1 u1722 >= 0
C46: -1 x1717 + 1 l1717 <= 0
C47: -1 x1717 + 1 u1717 >= 0
Bounds
1 <= x1718 <= 16
2 <= x1721 <= 2
1 <= x1719 <= 15
13 <= x1723 <= 13
10 <= x1716 <= 26
23 <= x1715 <= 27
24 <= x1724 <= 34
30 <= x1720 <= 34
30 <= x1722 <= 38
21 <= x1717 <= 38
0 <= l1718 <= 0
0 <= l1721 <= 3
0 <= l1719 <= 8
0 <= l1723 <= 8
0 <= l1716 <= 18
0 <= l1715 <= 26
0 <= l1724 <= 29
0 <= l1720 <= 32
0 <= l1722 <= 36
0 <= l1717 <= 38
0 <= u1718 <= 43
3 <= u1721 <= 43
8 <= u1719 <= 43
8 <= u1723 <= 43
18 <= u1716 <= 43
26 <= u1715 <= 43
29 <= u1724 <= 43
32 <= u1720 <= 43
36 <= u1722 <= 43
38 <= u1717 <= 43
Generals
End
